8
0, 624, 654, 94, 542, 474, 554, 161
624, 0, 420, 698, 106, 179, 419, 642
654, 420, 0, 679, 469, 493, 104, 566
94, 698, 679, 0, 623, 558, 576, 125
542, 106, 469, 623, 0, 75, 445, 581
474, 179, 493, 558, 75, 0, 453, 525
554, 419, 104, 576, 445, 453, 0, 462
161, 642, 566, 125, 581, 525, 462, 0
